kipet/examples/_reconciled.nl
g3 1 1 0	# problem unknown
 68 68 0 0 68 	# vars, constraints, objectives, ranges, eqns
 33 0 0 0 0 0	# nonlinear constrs, objs; ccons: lin, nonlin, nd, nzlb
 0 0	# network constraints: nonlinear, linear
 24 0 0 	# nonlinear vars in constraints, objectives, both
 0 0 0 1	# linear network variables; functions; arith, flags
 0 0 0 0 0 	# discrete variables: binary, integer, nonlinear (b,c,o)
 263 0 	# nonzeros in Jacobian, obj. gradient
 28 18	# max name lengths: constraints, variables
 0 0 0 0 0	# common exprs: b,c,o,c1,o1
C0	#odes[0.155051,A-]
o2	#*
o3	#/
o2	#*
n7.27609e-05
o2	#*
n0.5
o0	#+
o3	#/
o0	#+
n1.0
n1
o5	#pow
o0	#+
o5	#pow
o0	#+
n1.0
n1
n2
n0.0001
n0.5
o3	#/
o0	#+
o2	#*
n-1
n1.0
n210.0
o5	#pow
o0	#+
o5	#pow
o0	#+
o2	#*
n-1
n1.0
n210.0
n2
n0.0001
n0.5
v21	#X[0.155051,V]
v0	#Z[0.155051,A-]
C1	#odes[0.155051,AC-]
o2	#*
o3	#/
o2	#*
n7.27609e-05
o2	#*
n0.5
o0	#+
o3	#/
o0	#+
n1.0
n1
o5	#pow
o0	#+
o5	#pow
o0	#+
n1.0
n1
n2
n0.0001
n0.5
o3	#/
o0	#+
o2	#*
n-1
n1.0
n210.0
o5	#pow
o0	#+
o5	#pow
o0	#+
o2	#*
n-1
n1.0
n210.0
n2
n0.0001
n0.5
v21	#X[0.155051,V]
v1	#Z[0.155051,AC-]
C2	#odes[0.155051,AH]
o2	#*
o3	#/
o2	#*
n7.27609e-05
o2	#*
n0.5
o0	#+
o3	#/
o0	#+
n1.0
n1
o5	#pow
o0	#+
o5	#pow
o0	#+
n1.0
n1
n2
n0.0001
n0.5
o3	#/
o0	#+
o2	#*
n-1
n1.0
n210.0
o5	#pow
o0	#+
o5	#pow
o0	#+
o2	#*
n-1
n1.0
n210.0
n2
n0.0001
n0.5
v21	#X[0.155051,V]
v2	#Z[0.155051,AH]
C3	#odes[0.155051,B]
o2	#*
o3	#/
o2	#*
n7.27609e-05
o2	#*
n0.5
o0	#+
o3	#/
o0	#+
n1.0
n1
o5	#pow
o0	#+
o5	#pow
o0	#+
n1.0
n1
n2
n0.0001
n0.5
o3	#/
o0	#+
o2	#*
n-1
n1.0
n210.0
o5	#pow
o0	#+
o5	#pow
o0	#+
o2	#*
n-1
n1.0
n210.0
n2
n0.0001
n0.5
v21	#X[0.155051,V]
v3	#Z[0.155051,B]
C4	#odes[0.155051,BH+]
o2	#*
o3	#/
o2	#*
n7.27609e-05
o2	#*
n0.5
o0	#+
o3	#/
o0	#+
n1.0
n1
o5	#pow
o0	#+
o5	#pow
o0	#+
n1.0
n1
n2
n0.0001
n0.5
o3	#/
o0	#+
o2	#*
n-1
n1.0
n210.0
o5	#pow
o0	#+
o5	#pow
o0	#+
o2	#*
n-1
n1.0
n210.0
n2
n0.0001
n0.5
v21	#X[0.155051,V]
v4	#Z[0.155051,BH+]
C5	#odes[0.155051,C]
o0	#+
o2	#*
o3	#/
o2	#*
n7.27609e-05
o2	#*
n0.5
o0	#+
o3	#/
o0	#+
n1.0
n1
o5	#pow
o0	#+
o5	#pow
o0	#+
n1.0
n1
n2
n0.0001
n0.5
o3	#/
o0	#+
o2	#*
n-1
n1.0
n210.0
o5	#pow
o0	#+
o5	#pow
o0	#+
o2	#*
n-1
n1.0
n210.0
n2
n0.0001
n0.5
v21	#X[0.155051,V]
v5	#Z[0.155051,C]
o2	#*
n-1
o2	#*
o3	#/
n0.02247311828
o2	#*
n210
v21	#X[0.155051,V]
o2	#*
n0.5
o0	#+
o3	#/
o0	#+
n1.0
n1
o5	#pow
o0	#+
o5	#pow
o0	#+
n1.0
n1
n2
n0.0001
n0.5
o3	#/
o0	#+
o2	#*
n-1
n1.0
n210.0
o5	#pow
o0	#+
o5	#pow
o0	#+
o2	#*
n-1
n1.0
n210.0
n2
n0.0001
n0.5
C6	#odes[0.155051,P]
o2	#*
o3	#/
o2	#*
n7.27609e-05
o2	#*
n0.5
o0	#+
o3	#/
o0	#+
n1.0
n1
o5	#pow
o0	#+
o5	#pow
o0	#+
n1.0
n1
n2
n0.0001
n0.5
o3	#/
o0	#+
o2	#*
n-1
n1.0
n210.0
o5	#pow
o0	#+
o5	#pow
o0	#+
o2	#*
n-1
n1.0
n210.0
n2
n0.0001
n0.5
v21	#X[0.155051,V]
v6	#Z[0.155051,P]
C7	#odes[0.644949,A-]
o2	#*
o3	#/
o2	#*
n7.27609e-05
o2	#*
n0.5
o0	#+
o3	#/
o0	#+
n1.0
n1
o5	#pow
o0	#+
o5	#pow
o0	#+
n1.0
n1
n2
n0.0001
n0.5
o3	#/
o0	#+
o2	#*
n-1
n1.0
n210.0
o5	#pow
o0	#+
o5	#pow
o0	#+
o2	#*
n-1
n1.0
n210.0
n2
n0.0001
n0.5
v22	#X[0.644949,V]
v7	#Z[0.644949,A-]
C8	#odes[0.644949,AC-]
o2	#*
o3	#/
o2	#*
n7.27609e-05
o2	#*
n0.5
o0	#+
o3	#/
o0	#+
n1.0
n1
o5	#pow
o0	#+
o5	#pow
o0	#+
n1.0
n1
n2
n0.0001
n0.5
o3	#/
o0	#+
o2	#*
n-1
n1.0
n210.0
o5	#pow
o0	#+
o5	#pow
o0	#+
o2	#*
n-1
n1.0
n210.0
n2
n0.0001
n0.5
v22	#X[0.644949,V]
v8	#Z[0.644949,AC-]
C9	#odes[0.644949,AH]
o2	#*
o3	#/
o2	#*
n7.27609e-05
o2	#*
n0.5
o0	#+
o3	#/
o0	#+
n1.0
n1
o5	#pow
o0	#+
o5	#pow
o0	#+
n1.0
n1
n2
n0.0001
n0.5
o3	#/
o0	#+
o2	#*
n-1
n1.0
n210.0
o5	#pow
o0	#+
o5	#pow
o0	#+
o2	#*
n-1
n1.0
n210.0
n2
n0.0001
n0.5
v22	#X[0.644949,V]
v9	#Z[0.644949,AH]
C10	#odes[0.644949,B]
o2	#*
o3	#/
o2	#*
n7.27609e-05
o2	#*
n0.5
o0	#+
o3	#/
o0	#+
n1.0
n1
o5	#pow
o0	#+
o5	#pow
o0	#+
n1.0
n1
n2
n0.0001
n0.5
o3	#/
o0	#+
o2	#*
n-1
n1.0
n210.0
o5	#pow
o0	#+
o5	#pow
o0	#+
o2	#*
n-1
n1.0
n210.0
n2
n0.0001
n0.5
v22	#X[0.644949,V]
v10	#Z[0.644949,B]
C11	#odes[0.644949,BH+]
o2	#*
o3	#/
o2	#*
n7.27609e-05
o2	#*
n0.5
o0	#+
o3	#/
o0	#+
n1.0
n1
o5	#pow
o0	#+
o5	#pow
o0	#+
n1.0
n1
n2
n0.0001
n0.5
o3	#/
o0	#+
o2	#*
n-1
n1.0
n210.0
o5	#pow
o0	#+
o5	#pow
o0	#+
o2	#*
n-1
n1.0
n210.0
n2
n0.0001
n0.5
v22	#X[0.644949,V]
v11	#Z[0.644949,BH+]
C12	#odes[0.644949,C]
o0	#+
o2	#*
o3	#/
o2	#*
n7.27609e-05
o2	#*
n0.5
o0	#+
o3	#/
o0	#+
n1.0
n1
o5	#pow
o0	#+
o5	#pow
o0	#+
n1.0
n1
n2
n0.0001
n0.5
o3	#/
o0	#+
o2	#*
n-1
n1.0
n210.0
o5	#pow
o0	#+
o5	#pow
o0	#+
o2	#*
n-1
n1.0
n210.0
n2
n0.0001
n0.5
v22	#X[0.644949,V]
v12	#Z[0.644949,C]
o2	#*
n-1
o2	#*
o3	#/
n0.02247311828
o2	#*
n210
v22	#X[0.644949,V]
o2	#*
n0.5
o0	#+
o3	#/
o0	#+
n1.0
n1
o5	#pow
o0	#+
o5	#pow
o0	#+
n1.0
n1
n2
n0.0001
n0.5
o3	#/
o0	#+
o2	#*
n-1
n1.0
n210.0
o5	#pow
o0	#+
o5	#pow
o0	#+
o2	#*
n-1
n1.0
n210.0
n2
n0.0001
n0.5
C13	#odes[0.644949,P]
o2	#*
o3	#/
o2	#*
n7.27609e-05
o2	#*
n0.5
o0	#+
o3	#/
o0	#+
n1.0
n1
o5	#pow
o0	#+
o5	#pow
o0	#+
n1.0
n1
n2
n0.0001
n0.5
o3	#/
o0	#+
o2	#*
n-1
n1.0
n210.0
o5	#pow
o0	#+
o5	#pow
o0	#+
o2	#*
n-1
n1.0
n210.0
n2
n0.0001
n0.5
v22	#X[0.644949,V]
v13	#Z[0.644949,P]
C14	#odes[1,A-]
o2	#*
o3	#/
o2	#*
n7.27609e-05
o2	#*
n0.5
o0	#+
o3	#/
o0	#+
n1.0
n1
o5	#pow
o0	#+
o5	#pow
o0	#+
n1.0
n1
n2
n0.0001
n0.5
o3	#/
o0	#+
o2	#*
n-1
n1.0
n210.0
o5	#pow
o0	#+
o5	#pow
o0	#+
o2	#*
n-1
n1.0
n210.0
n2
n0.0001
n0.5
v23	#X[1,V]
v14	#Z[1,A-]
C15	#odes[1,AC-]
o2	#*
o3	#/
o2	#*
n7.27609e-05
o2	#*
n0.5
o0	#+
o3	#/
o0	#+
n1.0
n1
o5	#pow
o0	#+
o5	#pow
o0	#+
n1.0
n1
n2
n0.0001
n0.5
o3	#/
o0	#+
o2	#*
n-1
n1.0
n210.0
o5	#pow
o0	#+
o5	#pow
o0	#+
o2	#*
n-1
n1.0
n210.0
n2
n0.0001
n0.5
v23	#X[1,V]
v15	#Z[1,AC-]
C16	#odes[1,AH]
o2	#*
o3	#/
o2	#*
n7.27609e-05
o2	#*
n0.5
o0	#+
o3	#/
o0	#+
n1.0
n1
o5	#pow
o0	#+
o5	#pow
o0	#+
n1.0
n1
n2
n0.0001
n0.5
o3	#/
o0	#+
o2	#*
n-1
n1.0
n210.0
o5	#pow
o0	#+
o5	#pow
o0	#+
o2	#*
n-1
n1.0
n210.0
n2
n0.0001
n0.5
v23	#X[1,V]
v16	#Z[1,AH]
C17	#odes[1,B]
o2	#*
o3	#/
o2	#*
n7.27609e-05
o2	#*
n0.5
o0	#+
o3	#/
o0	#+
n1.0
n1
o5	#pow
o0	#+
o5	#pow
o0	#+
n1.0
n1
n2
n0.0001
n0.5
o3	#/
o0	#+
o2	#*
n-1
n1.0
n210.0
o5	#pow
o0	#+
o5	#pow
o0	#+
o2	#*
n-1
n1.0
n210.0
n2
n0.0001
n0.5
v23	#X[1,V]
v17	#Z[1,B]
C18	#odes[1,BH+]
o2	#*
o3	#/
o2	#*
n7.27609e-05
o2	#*
n0.5
o0	#+
o3	#/
o0	#+
n1.0
n1
o5	#pow
o0	#+
o5	#pow
o0	#+
n1.0
n1
n2
n0.0001
n0.5
o3	#/
o0	#+
o2	#*
n-1
n1.0
n210.0
o5	#pow
o0	#+
o5	#pow
o0	#+
o2	#*
n-1
n1.0
n210.0
n2
n0.0001
n0.5
v23	#X[1,V]
v18	#Z[1,BH+]
C19	#odes[1,C]
o0	#+
o2	#*
o3	#/
o2	#*
n7.27609e-05
o2	#*
n0.5
o0	#+
o3	#/
o0	#+
n1.0
n1
o5	#pow
o0	#+
o5	#pow
o0	#+
n1.0
n1
n2
n0.0001
n0.5
o3	#/
o0	#+
o2	#*
n-1
n1.0
n210.0
o5	#pow
o0	#+
o5	#pow
o0	#+
o2	#*
n-1
n1.0
n210.0
n2
n0.0001
n0.5
v23	#X[1,V]
v19	#Z[1,C]
o2	#*
n-1
o2	#*
o3	#/
n0.02247311828
o2	#*
n210
v23	#X[1,V]
o2	#*
n0.5
o0	#+
o3	#/
o0	#+
n1.0
n1
o5	#pow
o0	#+
o5	#pow
o0	#+
n1.0
n1
n2
n0.0001
n0.5
o3	#/
o0	#+
o2	#*
n-1
n1.0
n210.0
o5	#pow
o0	#+
o5	#pow
o0	#+
o2	#*
n-1
n1.0
n210.0
n2
n0.0001
n0.5
C20	#odes[1,P]
o2	#*
o3	#/
o2	#*
n7.27609e-05
o2	#*
n0.5
o0	#+
o3	#/
o0	#+
n1.0
n1
o5	#pow
o0	#+
o5	#pow
o0	#+
n1.0
n1
n2
n0.0001
n0.5
o3	#/
o0	#+
o2	#*
n-1
n1.0
n210.0
o5	#pow
o0	#+
o5	#pow
o0	#+
o2	#*
n-1
n1.0
n210.0
n2
n0.0001
n0.5
v23	#X[1,V]
v20	#Z[1,P]
C21	#algebraic_consts[0.155051,0]
o2	#*
n-1
o2	#*
o2	#*
n49.7796
v2	#Z[0.155051,AH]
v3	#Z[0.155051,B]
C22	#algebraic_consts[0.155051,1]
o2	#*
n-1
o2	#*
o2	#*
n8.93156
v0	#Z[0.155051,A-]
v5	#Z[0.155051,C]
C23	#algebraic_consts[0.155051,3]
o2	#*
n-1
o2	#*
o2	#*
n0.31087
v1	#Z[0.155051,AC-]
v2	#Z[0.155051,AH]
C24	#algebraic_consts[0.155051,4]
o2	#*
n-1
o2	#*
o2	#*
n3.87809
v1	#Z[0.155051,AC-]
v4	#Z[0.155051,BH+]
C25	#algebraic_consts[0.644949,0]
o2	#*
n-1
o2	#*
o2	#*
n49.7796
v9	#Z[0.644949,AH]
v10	#Z[0.644949,B]
C26	#algebraic_consts[0.644949,1]
o2	#*
n-1
o2	#*
o2	#*
n8.93156
v7	#Z[0.644949,A-]
v12	#Z[0.644949,C]
C27	#algebraic_consts[0.644949,3]
o2	#*
n-1
o2	#*
o2	#*
n0.31087
v8	#Z[0.644949,AC-]
v9	#Z[0.644949,AH]
C28	#algebraic_consts[0.644949,4]
o2	#*
n-1
o2	#*
o2	#*
n3.87809
v8	#Z[0.644949,AC-]
v11	#Z[0.644949,BH+]
C29	#algebraic_consts[1,0]
o2	#*
n-1
o2	#*
o2	#*
n49.7796
v16	#Z[1,AH]
v17	#Z[1,B]
C30	#algebraic_consts[1,1]
o2	#*
n-1
o2	#*
o2	#*
n8.93156
v14	#Z[1,A-]
v19	#Z[1,C]
C31	#algebraic_consts[1,3]
o2	#*
n-1
o2	#*
o2	#*
n0.31087
v15	#Z[1,AC-]
v16	#Z[1,AH]
C32	#algebraic_consts[1,4]
o2	#*
n-1
o2	#*
o2	#*
n3.87809
v15	#Z[1,AC-]
v18	#Z[1,BH+]
C33	#odes[0.155051,V]
n0
C34	#odes[0.644949,V]
n0
C35	#odes[1,V]
n0
C36	#algebraic_consts[0,0]
n0
C37	#algebraic_consts[0,1]
n0
C38	#algebraic_consts[0,2]
n0
C39	#algebraic_consts[0,3]
n0
C40	#algebraic_consts[0,4]
n0
C41	#algebraic_consts[0.155051,2]
n0
C42	#algebraic_consts[0.644949,2]
n0
C43	#algebraic_consts[1,2]
n0
C44	#dZdt_deq_aug[0.155051,A-]
n0
C45	#dZdt_deq_aug[0.155051,AC-]
n0
C46	#dZdt_deq_aug[0.155051,AH]
n0
C47	#dZdt_deq_aug[0.155051,B]
n0
C48	#dZdt_deq_aug[0.155051,BH+]
n0
C49	#dZdt_deq_aug[0.155051,C]
n0
C50	#dZdt_deq_aug[0.155051,P]
n0
C51	#dZdt_deq_aug[0.644949,A-]
n0
C52	#dZdt_deq_aug[0.644949,AC-]
n0
C53	#dZdt_deq_aug[0.644949,AH]
n0
C54	#dZdt_deq_aug[0.644949,B]
n0
C55	#dZdt_deq_aug[0.644949,BH+]
n0
C56	#dZdt_deq_aug[0.644949,C]
n0
C57	#dZdt_deq_aug[0.644949,P]
n0
C58	#dZdt_deq_aug[1,A-]
n0
C59	#dZdt_deq_aug[1,AC-]
n0
C60	#dZdt_deq_aug[1,AH]
n0
C61	#dZdt_deq_aug[1,B]
n0
C62	#dZdt_deq_aug[1,BH+]
n0
C63	#dZdt_deq_aug[1,C]
n0
C64	#dZdt_deq_aug[1,P]
n0
C65	#dXdt_deq_aug[0.155051,V]
n0
C66	#dXdt_deq_aug[0.644949,V]
n0
C67	#dXdt_deq_aug[1,V]
n0
x44	# initial guess
0 1
1 1
2 1
3 1
4 1
5 1
6 1
7 1
8 1
9 1
10 1
11 1
12 1
13 1
14 1
15 1
16 1
17 1
18 1
19 1
20 1
21 1.0
22 1.0
23 1.0
48 1.0
49 1.0
50 1.0
51 1.0
52 1.0
53 1.0
54 1.0
55 1.0
56 1.0
57 1.0
58 1.0
59 1.0
60 1.0
61 1.0
62 1.0
63 1.0
64 1.0
65 1.0
66 1.0
67 1.0
r	#68 ranges (rhs's)
4 0.0
4 0.0
4 0.0
4 0.0
4 0.0
4 0.0
4 0.0
4 0.0
4 0.0
4 0.0
4 0.0
4 0.0
4 0.0
4 0.0
4 0.0
4 0.0
4 0.0
4 0.0
4 0.0
4 0.0
4 0.0
4 0.0
4 0.0
4 0.0
4 0.0
4 0.0
4 0.0
4 0.0
4 0.0
4 0.0
4 0.0
4 0.0
4 0.0
4 7.276044521125815e-05
4 7.276044521125815e-05
4 7.276044521125815e-05
4 49.7796
4 8.93156
4 1.31765
4 0.31087
4 3.87809
4 0.0
4 0.0
4 0.0
4 -4.139387691339813
4 -4.139387691339813
4 -4.139387691339813
4 -4.139387691339813
4 -4.139387691339813
4 -4.139387691339813
4 -4.139387691339813
4 1.7393876913398163
4 1.7393876913398163
4 1.7393876913398163
4 1.7393876913398163
4 1.7393876913398163
4 1.7393876913398163
4 1.7393876913398163
4 -2.999999999999993
4 -2.999999999999993
4 -2.999999999999993
4 -2.999999999999993
4 -2.999999999999993
4 -2.999999999999993
4 -2.999999999999993
4 -4.139387691339813
4 1.7393876913398163
4 -2.999999999999993
b	#68 bounds (on variables)
3
3
3
3
3
3
3
3
3
3
3
3
3
3
3
3
3
3
3
3
3
3
3
3
3
3
3
3
3
3
3
3
3
3
3
3
3
3
3
3
3
3
3
3
3
3
3
3
3
3
3
3
3
3
3
3
3
3
3
3
3
3
3
3
3
3
3
3
k67	#intermediate Jacobian column lengths
5
12
18
23
28
33
37
42
49
55
60
65
70
74
79
86
92
97
102
107
111
121
131
141
143
145
147
149
151
153
155
157
159
161
163
165
167
169
171
173
175
177
179
181
183
185
187
189
190
191
192
193
194
199
203
207
212
217
222
226
230
235
240
245
249
253
258
J0 7
24 1
53 -1
54 1
55 -1
56 -1
0 0
21 0
J1 7
25 1
54 -1
55 1
56 1
57 1
1 0
21 0
J2 5
26 1
53 1
56 1
2 0
21 0
J3 5
27 1
53 1
57 -1
3 0
21 0
J4 5
28 1
53 -1
57 1
4 0
21 0
J5 5
29 1
54 1
55 -1
5 0
21 0
J6 5
30 1
56 -1
57 -1
6 0
21 0
J7 7
31 1
58 -1
59 1
60 -1
61 -1
7 0
22 0
J8 7
32 1
59 -1
60 1
61 1
62 1
8 0
22 0
J9 5
33 1
58 1
61 1
9 0
22 0
J10 5
34 1
58 1
62 -1
10 0
22 0
J11 5
35 1
58 -1
62 1
11 0
22 0
J12 5
36 1
59 1
60 -1
12 0
22 0
J13 5
37 1
61 -1
62 -1
13 0
22 0
J14 7
38 1
63 -1
64 1
65 -1
66 -1
14 0
23 0
J15 7
39 1
64 -1
65 1
66 1
67 1
15 0
23 0
J16 5
40 1
63 1
66 1
16 0
23 0
J17 5
41 1
63 1
67 -1
17 0
23 0
J18 5
42 1
63 -1
67 1
18 0
23 0
J19 5
43 1
64 1
65 -1
19 0
23 0
J20 5
44 1
66 -1
67 -1
20 0
23 0
J21 3
53 1
2 0
3 0
J22 3
54 1
0 0
5 0
J23 3
56 1
1 0
2 0
J24 3
57 1
1 0
4 0
J25 3
58 1
9 0
10 0
J26 3
59 1
7 0
12 0
J27 3
61 1
8 0
9 0
J28 3
62 1
8 0
11 0
J29 3
63 1
16 0
17 0
J30 3
64 1
14 0
19 0
J31 3
66 1
15 0
16 0
J32 3
67 1
15 0
18 0
J33 1
45 1
J34 1
46 1
J35 1
47 1
J36 1
48 1
J37 1
49 1
J38 1
50 1
J39 1
51 1
J40 1
52 1
J41 2
1 -1.31765
55 1
J42 2
8 -1.31765
60 1
J43 2
15 -1.31765
65 1
J44 4
0 -3.2247448713915885
7 -1.1678400846904051
14 0.2531972647421808
24 1.0
J45 4
1 -3.2247448713915885
8 -1.1678400846904051
15 0.2531972647421808
25 1.0
J46 4
2 -3.2247448713915885
9 -1.1678400846904051
16 0.2531972647421808
26 1.0
J47 4
3 -3.2247448713915885
10 -1.1678400846904051
17 0.2531972647421808
27 1.0
J48 4
4 -3.2247448713915885
11 -1.1678400846904051
18 0.2531972647421808
28 1.0
J49 4
5 -3.2247448713915885
12 -1.1678400846904051
19 0.2531972647421808
29 1.0
J50 4
6 -3.2247448713915885
13 -1.1678400846904051
20 0.2531972647421808
30 1.0
J51 4
0 3.5678400846904044
7 -0.7752551286084095
14 -1.0531972647421817
31 1.0
J52 4
1 3.5678400846904044
8 -0.7752551286084095
15 -1.0531972647421817
32 1.0
J53 4
2 3.5678400846904044
9 -0.7752551286084095
16 -1.0531972647421817
33 1.0
J54 4
3 3.5678400846904044
10 -0.7752551286084095
17 -1.0531972647421817
34 1.0
J55 4
4 3.5678400846904044
11 -0.7752551286084095
18 -1.0531972647421817
35 1.0
J56 4
5 3.5678400846904044
12 -0.7752551286084095
19 -1.0531972647421817
36 1.0
J57 4
6 3.5678400846904044
13 -0.7752551286084095
20 -1.0531972647421817
37 1.0
J58 4
0 -5.531972647421805
7 7.531972647421807
14 -5.000000000000001
38 1.0
J59 4
1 -5.531972647421805
8 7.531972647421807
15 -5.000000000000001
39 1.0
J60 4
2 -5.531972647421805
9 7.531972647421807
16 -5.000000000000001
40 1.0
J61 4
3 -5.531972647421805
10 7.531972647421807
17 -5.000000000000001
41 1.0
J62 4
4 -5.531972647421805
11 7.531972647421807
18 -5.000000000000001
42 1.0
J63 4
5 -5.531972647421805
12 7.531972647421807
19 -5.000000000000001
43 1.0
J64 4
6 -5.531972647421805
13 7.531972647421807
20 -5.000000000000001
44 1.0
J65 4
21 -3.2247448713915885
22 -1.1678400846904051
23 0.2531972647421808
45 1.0
J66 4
21 3.5678400846904044
22 -0.7752551286084095
23 -1.0531972647421817
46 1.0
J67 4
21 -5.531972647421805
22 7.531972647421807
23 -5.000000000000001
47 1.0
